HUN,8,6,896
3,26,1,21,4,25,2,22,5,30,0,23
1,28,2,25,4,24,3,28,0,21,5,24
3,23,0,21,5,30,2,30,1,29,4,28
0,23,3,21,5,30,2,30,4,22,1,28
3,25,5,26,0,27,1,24,2,25,4,24
1,29,5,27,2,25,3,30,0,26,4,25
3,23,5,30,1,22,0,27,2,23,4,25
2,24,5,21,0,28,3,22,4,25,1,29
